words_train/words_697_SAT.qaiger
aag 57 16 0 1 41
26
28
18
30
32
16
22
2
6
20
4
12
10
24
14
8
115
34 21 19
36 34 23
38 36 25
40 38 27
42 40 29
44 42 31
46 44 33
48 12 10
50 48 14
52 51 16
54 50 17
56 55 53
58 57 46
60 56 47
62 61 59
64 49 15
66 65 51
68 66 45
70 39 8
72 40 10
74 35 4
76 18 2
78 77 7
80 78 75
82 81 37
84 82 73
86 13 11
88 87 28
90 89 40
92 91 49
94 93 85
96 94 71
98 67 44
100 87 49
102 101 42
104 103 99
106 104 97
108 107 69
110 108 62
112 109 63
114 113 111
i0 2 y[4]
i1 2 y[5]
i2 2 y[0]
i3 2 y[6]
i4 2 y[7]
i5 1 x[7]
i6 2 y[2]
i7 1 x[0]
i8 1 x[2]
i9 2 y[1]
i10 1 x[1]
i11 1 x[5]
i12 1 x[4]
i13 2 y[3]
i14 1 x[6]
i15 1 x[3]
o0 bv[0]
c
simplified
  <=
    and
      unary minus
        2 y
      2 y
    add
      1 x
      << 4
        1
