words_train/words_697_SAT.qaiger.qdimacs
p cnf 57 124
a 1 2 3 4 5 6 7 8 0
e 9 10 11 12 13 14 15 16 17 18 19 20 21 22 23 24 25 26 27 28 29 30 31 32 33 34 35 36 37 38 39 40 41 42 43 44 45 46 47 48 49 50 51 52 53 54 55 56 57 0
10 9 17 0
-10 -17 0
-9 -17 0
-17 11 18 0
17 -18 0
-11 -18 0
-18 12 19 0
18 -19 0
-12 -19 0
-19 13 20 0
19 -20 0
-13 -20 0
-20 14 21 0
20 -21 0
-14 -21 0
-21 15 22 0
21 -22 0
-15 -22 0
-22 16 23 0
22 -23 0
-16 -23 0
-6 -5 24 0
6 -24 0
5 -24 0
-24 -7 25 0
24 -25 0
7 -25 0
25 -8 26 0
-25 -26 0
8 -26 0
-25 8 27 0
25 -27 0
-8 -27 0
27 26 28 0
-27 -28 0
-26 -28 0
28 -23 29 0
-28 -29 0
23 -29 0
-28 23 30 0
28 -30 0
-23 -30 0
30 29 31 0
-30 -31 0
-29 -31 0
24 7 32 0
-24 -32 0
-7 -32 0
32 25 33 0
-32 -33 0
-25 -33 0
-33 22 34 0
33 -34 0
-22 -34 0
19 -4 35 0
-19 -35 0
4 -35 0
-20 -5 36 0
20 -36 0
5 -36 0
17 -2 37 0
-17 -37 0
2 -37 0
-9 -1 38 0
9 -38 0
1 -38 0
38 3 39 0
-38 -39 0
-3 -39 0
-39 37 40 0
39 -40 0
-37 -40 0
40 18 41 0
-40 -41 0
-18 -41 0
-41 36 42 0
41 -42 0
-36 -42 0
6 5 43 0
-6 -43 0
-5 -43 0
43 -14 44 0
-43 -44 0
14 -44 0
44 -20 45 0
-44 -45 0
20 -45 0
45 24 46 0
-45 -46 0
-24 -46 0
46 42 47 0
-46 -47 0
-42 -47 0
-47 35 48 0
47 -48 0
-35 -48 0
33 -22 49 0
-33 -49 0
22 -49 0
43 24 50 0
-43 -50 0
-24 -50 0
50 -21 51 0
-50 -51 0
21 -51 0
51 49 52 0
-51 -52 0
-49 -52 0
-52 48 53 0
52 -53 0
-48 -53 0
53 34 54 0
-53 -54 0
-34 -54 0
-54 -31 55 0
54 -55 0
31 -55 0
54 31 56 0
-54 -56 0
-31 -56 0
56 55 57 0
-56 -57 0
-55 -57 0
-57 0
